TCS_Benchmarks/redos_fix/corpus1_output_distinct_3420_3419_24_0.txt
(.*)(\s*)
(.*)(INTFACE\s*=\s*-D(\S+))(\s*)